; benchmark generated from python API
(set-info :status unknown)
(declare-fun x_month () (_ BitVec 32))
(declare-fun x_year () (_ BitVec 32))
(declare-fun x_day () (_ BitVec 32))
(declare-fun y_month () (_ BitVec 32))
(declare-fun y_year () (_ BitVec 32))
(declare-fun y_day () (_ BitVec 32))
(assert
 (let (($x6962 (or (= (_ bv4 32) x_month) (= (_ bv6 32) x_month) (= (_ bv9 32) x_month) (= (_ bv11 32) x_month))))
 (let (($x562 (and (= (_ bv0 32) (bvsmod x_year (_ bv4 32))) (and (distinct (_ bv0 32) (bvsmod x_year (_ bv100 32))) true))))
 (let (($x886 (= (_ bv2 32) x_month)))
 (let ((?x4371 (ite $x886 (ite (or $x562 (= (_ bv0 32) (bvsmod x_year (_ bv400 32)))) (_ bv29 32) (_ bv28 32)) (ite $x6962 (_ bv30 32) (_ bv31 32)))))
 (let (($x2883 (bvsle x_day ?x4371)))
 (let (($x5252 (bvsle (_ bv1 32) x_day)))
 (let (($x2185 (bvsle (_ bv1 32) x_month)))
 (let (($x4739 (bvsge (_ bv12 32) x_month)))
 (let (($x2451 (bvsle (_ bv1901 32) x_year)))
 (or (and (= (_ bv1900 32) x_year) (bvsle (_ bv3 32) x_month) $x4739 $x5252 $x2883) (and $x2451 (bvsge (_ bv2099 32) x_year) $x2185 $x4739 $x5252 $x2883) (and (= (_ bv2100 32) x_year) $x2185 (bvsge (_ bv2 32) x_month) $x5252 $x2883))))))))))))
(assert
 (let (($x2856 (or (= (_ bv4 32) y_month) (= (_ bv6 32) y_month) (= (_ bv9 32) y_month) (= (_ bv11 32) y_month))))
 (let (($x2695 (and (= (_ bv0 32) (bvsmod y_year (_ bv4 32))) (and (distinct (_ bv0 32) (bvsmod y_year (_ bv100 32))) true))))
 (let (($x899 (= (_ bv2 32) y_month)))
 (let ((?x5658 (ite $x899 (ite (or $x2695 (= (_ bv0 32) (bvsmod y_year (_ bv400 32)))) (_ bv29 32) (_ bv28 32)) (ite $x2856 (_ bv30 32) (_ bv31 32)))))
 (let (($x3087 (bvsle y_day ?x5658)))
 (let (($x5726 (bvsle (_ bv1 32) y_day)))
 (let (($x1344 (bvsle (_ bv1 32) y_month)))
 (let (($x1298 (bvsge (_ bv12 32) y_month)))
 (let (($x787 (bvsle (_ bv1901 32) y_year)))
 (or (and (= (_ bv1900 32) y_year) (bvsle (_ bv3 32) y_month) $x1298 $x5726 $x3087) (and $x787 (bvsge (_ bv2099 32) y_year) $x1344 $x1298 $x5726 $x3087) (and (= (_ bv2100 32) y_year) $x1344 (bvsge (_ bv2 32) y_month) $x5726 $x3087))))))))))))
(assert
 (let (($x886 (= (_ bv2 32) x_month)))
 (and (= (_ bv2020 32) x_year) $x886 (= (_ bv29 32) x_day))))
(assert
 (let ((?x3353 (bvadd x_month (bvadd (bvmul (_ bv1 32) (_ bv12 32)) (_ bv0 32)))))
 (let ((?x3335 (bvsub (ite (bvuge ?x3353 (_ bv2147483648 32)) (bvsub ?x3353 (_ bv0 32)) ?x3353) (_ bv1 32))))
 (let ((?x1261 (bvsmod ?x3335 (_ bv12 32))))
 (let ((?x3656 (bvadd ?x1261 (_ bv1 32))))
 (let (($x2057 (= (_ bv11 32) ?x3656)))
 (let (($x1174 (= (_ bv9 32) ?x3656)))
 (let (($x2528 (= (_ bv6 32) ?x3656)))
 (let (($x5366 (= (_ bv4 32) ?x3656)))
 (let ((?x978 (bvsdiv ?x3335 (_ bv12 32))))
 (let ((?x4147 (ite (and (bvuge ?x3335 (_ bv2147483648 32)) (and (distinct (_ bv0 32) ?x1261) true)) (bvsub ?x978 (_ bv1 32)) ?x978)))
 (let ((?x6979 (bvadd x_year ?x4147)))
 (let (($x2299 (or (and (= (_ bv0 32) (bvsmod ?x6979 (_ bv4 32))) (and (distinct (_ bv0 32) (bvsmod ?x6979 (_ bv100 32))) true)) (= (_ bv0 32) (bvsmod ?x6979 (_ bv400 32))))))
 (let (($x693 (= (_ bv2 32) ?x3656)))
 (let ((?x3347 (ite $x693 (ite $x2299 (_ bv29 32) (_ bv28 32)) (ite (or $x5366 $x2528 $x1174 $x2057) (_ bv30 32) (_ bv31 32)))))
 (let ((?x789 (ite (bvsgt (_ bv1 32) x_day) (_ bv1 32) (ite (bvsgt x_day ?x3347) ?x3347 x_day))))
 (let ((?x1118 (ite (bvsgt (_ bv1 32) ?x789) (_ bv1 32) (ite (bvsgt ?x789 ?x3347) ?x3347 ?x789))))
 (let ((?x3373 (ite $x693 (ite $x2299 (_ bv31 32) (_ bv31 32)) (ite (= (_ bv1 32) ?x3656) (ite $x2299 (_ bv0 32) (_ bv0 32)) (_ bv0 32)))))
 (let ((?x6438 (ite $x5366 (ite $x2299 (_ bv91 32) (_ bv90 32)) (ite (= (_ bv3 32) ?x3656) (ite $x2299 (_ bv60 32) (_ bv59 32)) ?x3373))))
 (let ((?x3342 (ite $x2528 (ite $x2299 (_ bv152 32) (_ bv151 32)) (ite (= (_ bv5 32) ?x3656) (ite $x2299 (_ bv121 32) (_ bv120 32)) ?x6438))))
 (let ((?x2715 (ite (= (_ bv8 32) ?x3656) (ite $x2299 (_ bv213 32) (_ bv212 32)) (ite (= (_ bv7 32) ?x3656) (ite $x2299 (_ bv182 32) (_ bv181 32)) ?x3342))))
 (let ((?x5831 (ite (= (_ bv10 32) ?x3656) (ite $x2299 (_ bv274 32) (_ bv273 32)) (ite $x1174 (ite $x2299 (_ bv244 32) (_ bv243 32)) ?x2715))))
 (let ((?x3561 (ite (= (_ bv12 32) ?x3656) (ite $x2299 (_ bv335 32) (_ bv334 32)) (ite $x2057 (ite $x2299 (_ bv305 32) (_ bv304 32)) ?x5831))))
 (let ((?x8198 (bvadd (bvmul (_ bv365 32) (bvsub ?x6979 (_ bv1 32))) (bvsdiv (bvsub ?x6979 (_ bv1 32)) (_ bv4 32)))))
 (let ((?x3454 (bvadd (bvsub ?x8198 (bvsdiv (bvsub ?x6979 (_ bv1 32)) (_ bv100 32))) (bvsdiv (bvsub ?x6979 (_ bv1 32)) (_ bv400 32)))))
 (let ((?x1956 (bvadd (bvadd (bvsub (bvadd (bvadd ?x3454 ?x3561) (bvsub ?x1118 (_ bv1 32))) (_ bv730179 32)) (_ bv0 32)) (_ bv730179 32))))
 (let ((?x1430 (bvsmod ?x1956 (_ bv146097 32))))
 (let ((?x4007 (bvsdiv ?x1430 (_ bv36524 32))))
 (let ((?x2144 (ite (bvsle (_ bv4 32) ?x4007) (_ bv3 32) ?x4007)))
 (let ((?x3326 (bvsub ?x1430 (bvmul ?x2144 (_ bv36524 32)))))
 (let ((?x3505 (bvsmod ?x3326 (_ bv1461 32))))
 (let ((?x1413 (bvsdiv ?x3505 (_ bv365 32))))
 (let ((?x6124 (ite (bvsle (_ bv4 32) ?x1413) (_ bv3 32) ?x1413)))
 (let ((?x5838 (bvadd (bvadd (bvmul (bvsdiv ?x1956 (_ bv146097 32)) (_ bv400 32)) (bvmul ?x2144 (_ bv100 32))) (bvmul (bvsdiv ?x3326 (_ bv1461 32)) (_ bv4 32)))))
 (let ((?x3600 (bvadd (bvadd ?x5838 ?x6124) (_ bv1 32))))
 (let (($x6947 (or (and (= (_ bv0 32) (bvsmod ?x3600 (_ bv4 32))) (and (distinct (_ bv0 32) (bvsmod ?x3600 (_ bv100 32))) true)) (= (_ bv0 32) (bvsmod ?x3600 (_ bv400 32))))))
 (let ((?x844 (bvsub ?x3505 (bvmul ?x6124 (_ bv365 32)))))
 (let ((?x3304 (ite $x6947 (_ bv31 32) (_ bv31 32))))
 (let (($x2961 (bvsge ?x844 ?x3304)))
 (let ((?x7022 (ite $x2961 (bvadd (bvsub ?x844 ?x3304) (_ bv1 32)) (bvadd (bvsub ?x844 (ite $x6947 (_ bv0 32) (_ bv0 32))) (_ bv1 32)))))
 (let ((?x1289 (ite $x6947 (_ bv60 32) (_ bv59 32))))
 (let (($x5452 (bvsge ?x844 ?x1289)))
 (let ((?x859 (ite $x6947 (_ bv91 32) (_ bv90 32))))
 (let (($x1088 (bvsge ?x844 ?x859)))
 (let ((?x6978 (ite $x1088 (bvadd (bvsub ?x844 ?x859) (_ bv1 32)) (ite $x5452 (bvadd (bvsub ?x844 ?x1289) (_ bv1 32)) ?x7022))))
 (let ((?x7876 (ite $x6947 (_ bv121 32) (_ bv120 32))))
 (let (($x904 (bvsge ?x844 ?x7876)))
 (let ((?x5713 (ite $x6947 (_ bv152 32) (_ bv151 32))))
 (let (($x8150 (bvsge ?x844 ?x5713)))
 (let ((?x1043 (ite $x8150 (bvadd (bvsub ?x844 ?x5713) (_ bv1 32)) (ite $x904 (bvadd (bvsub ?x844 ?x7876) (_ bv1 32)) ?x6978))))
 (let ((?x2058 (ite $x6947 (_ bv182 32) (_ bv181 32))))
 (let (($x8161 (bvsge ?x844 ?x2058)))
 (let ((?x1304 (ite $x6947 (_ bv213 32) (_ bv212 32))))
 (let (($x2697 (bvsge ?x844 ?x1304)))
 (let ((?x5377 (ite $x2697 (bvadd (bvsub ?x844 ?x1304) (_ bv1 32)) (ite $x8161 (bvadd (bvsub ?x844 ?x2058) (_ bv1 32)) ?x1043))))
 (let ((?x2809 (ite $x6947 (_ bv244 32) (_ bv243 32))))
 (let (($x5504 (bvsge ?x844 ?x2809)))
 (let ((?x1774 (ite $x6947 (_ bv274 32) (_ bv273 32))))
 (let (($x6762 (bvsge ?x844 ?x1774)))
 (let ((?x4154 (ite $x6762 (bvadd (bvsub ?x844 ?x1774) (_ bv1 32)) (ite $x5504 (bvadd (bvsub ?x844 ?x2809) (_ bv1 32)) ?x5377))))
 (let ((?x4549 (ite $x6947 (_ bv305 32) (_ bv304 32))))
 (let (($x1133 (bvsge ?x844 ?x4549)))
 (let ((?x5271 (ite $x6947 (_ bv335 32) (_ bv334 32))))
 (let (($x690 (bvsge ?x844 ?x5271)))
 (let ((?x3784 (ite $x690 (bvadd (bvsub ?x844 ?x5271) (_ bv1 32)) (ite $x1133 (bvadd (bvsub ?x844 ?x4549) (_ bv1 32)) ?x4154))))
 (let (($x620 (= (_ bv0 32) (_ bv0 32))))
 (let ((?x6996 (ite $x8150 (_ bv6 32) (ite $x904 (_ bv5 32) (ite $x1088 (_ bv4 32) (ite $x5452 (_ bv3 32) (ite $x2961 (_ bv2 32) (_ bv1 32))))))))
 (let ((?x2047 (ite $x1133 (_ bv11 32) (ite $x6762 (_ bv10 32) (ite $x5504 (_ bv9 32) (ite $x2697 (_ bv8 32) (ite $x8161 (_ bv7 32) ?x6996)))))))
 (and (= y_year (ite $x620 ?x6979 ?x3600)) (= y_month (ite $x620 ?x3656 (ite $x690 (_ bv12 32) ?x2047))) (= y_day (ite $x620 ?x1118 ?x3784)))))))))))))))))))))))))))))))))))))))))))))))))))))))))))))))))))))))
(assert
 (not (and (= (_ bv2021 32) y_year) (= (_ bv2 32) y_month) (= (_ bv28 32) y_day))))
(check-sat)
